;; ===================== PROJECTED CANON (QE) =====================
;; Each clause below is entailed by Proj = ∃W.F over the canonical vocabulary.
;; Units appear first for clarity; OR-clauses (SAT-filtered) follow.
;; ==================================================================

;; Unit Bool constraints (entailed)
(assert patient_has_finding_of_invasive_aspergillosis_now)
(assert patient_has_finding_of_patient_immunocompromised_now)
(assert patient_has_finding_of_radiologic_infiltrate_of_lung_now)
